
(set-logic HORN)
(define-fun Z_355 () Int 0)
(define-fun S_124 ((x Int)) Int (+ x 1))
(declare-fun diseqInt (Int Int) Bool)
(declare-fun unS_129 (Int Int) Bool)
(declare-fun isZ_124 (Int) Bool)
(declare-fun isS_124 (Int) Bool)
(assert (forall ((x_3478 Int))
	(unS_129 x_3478 (S_124 x_3478))))
(assert (isZ_124 Z_355))
(assert (forall ((x_3480 Int))
	(isS_124 (S_124 x_3480))))
(assert (forall ((x_3481 Int))
	(diseqInt Z_355 (S_124 x_3481))))
(assert (forall ((x_3482 Int))
	(diseqInt (S_124 x_3482) Z_355)))
(assert (forall ((x_3483 Int) (x_3484 Int))
	(=> (diseqInt x_3483 x_3484) (diseqInt (S_124 x_3483) (S_124 x_3484)))))
(declare-fun add_64 (Int Int Int) Bool)
(declare-fun minus_64 (Int Int Int) Bool)
(declare-fun le_64 (Int Int) Bool)
(declare-fun ge_64 (Int Int) Bool)
(declare-fun lt_64 (Int Int) Bool)
(declare-fun gt_64 (Int Int) Bool)
(declare-fun mult_64 (Int Int Int) Bool)
(declare-fun div_64 (Int Int Int) Bool)
(declare-fun mod_64 (Int Int Int) Bool)
(assert (forall ((y_284 Int))
	(add_64 y_284 Z_355 y_284)))
(assert (forall ((x_3462 Int) (y_284 Int) (r_64 Int))
	(=> (add_64 r_64 x_3462 y_284) (add_64 (S_124 r_64) (S_124 x_3462) y_284))))
(assert (forall ((y_284 Int))
	(minus_64 Z_355 Z_355 y_284)))
(assert (forall ((x_3462 Int) (y_284 Int) (r_64 Int))
	(=> (minus_64 r_64 x_3462 y_284) (minus_64 (S_124 r_64) (S_124 x_3462) y_284))))
(assert (forall ((y_284 Int))
	(le_64 Z_355 y_284)))
(assert (forall ((x_3462 Int) (y_284 Int))
	(=> (le_64 x_3462 y_284) (le_64 (S_124 x_3462) (S_124 y_284)))))
(assert (forall ((y_284 Int))
	(ge_64 y_284 Z_355)))
(assert (forall ((x_3462 Int) (y_284 Int))
	(=> (ge_64 x_3462 y_284) (ge_64 (S_124 x_3462) (S_124 y_284)))))
(assert (forall ((y_284 Int))
	(lt_64 Z_355 (S_124 y_284))))
(assert (forall ((x_3462 Int) (y_284 Int))
	(=> (lt_64 x_3462 y_284) (lt_64 (S_124 x_3462) (S_124 y_284)))))
(assert (forall ((y_284 Int))
	(gt_64 (S_124 y_284) Z_355)))
(assert (forall ((x_3462 Int) (y_284 Int))
	(=> (gt_64 x_3462 y_284) (gt_64 (S_124 x_3462) (S_124 y_284)))))
(assert (forall ((y_284 Int))
	(mult_64 Z_355 Z_355 y_284)))
(assert (forall ((x_3462 Int) (y_284 Int) (r_64 Int) (z_356 Int))
	(=> (and (mult_64 r_64 x_3462 y_284) (add_64 z_356 r_64 y_284)) (mult_64 z_356 (S_124 x_3462) y_284))))
(assert (forall ((x_3462 Int) (y_284 Int))
	(=> (lt_64 x_3462 y_284) (div_64 Z_355 x_3462 y_284))))
(assert (forall ((x_3462 Int) (y_284 Int) (r_64 Int) (z_356 Int))
	(=> (and (ge_64 x_3462 y_284) (minus_64 z_356 x_3462 y_284) (div_64 r_64 z_356 y_284)) (div_64 (S_124 r_64) x_3462 y_284))))
(assert (forall ((x_3462 Int) (y_284 Int))
	(=> (lt_64 x_3462 y_284) (mod_64 x_3462 x_3462 y_284))))
(assert (forall ((x_3462 Int) (y_284 Int) (r_64 Int) (z_356 Int))
	(=> (and (ge_64 x_3462 y_284) (minus_64 z_356 x_3462 y_284) (mod_64 r_64 z_356 y_284)) (mod_64 r_64 x_3462 y_284))))
(declare-datatypes ((list_58 0)) (((nil_58) (cons_58 (head_116 Int) (tail_116 list_58)))))
(declare-fun diseqlist_58 (list_58 list_58) Bool)
(declare-fun head_117 (Int list_58) Bool)
(declare-fun tail_117 (list_58 list_58) Bool)
(declare-fun isnil_58 (list_58) Bool)
(declare-fun iscons_58 (list_58) Bool)
(assert (forall ((x_3464 Int) (x_3465 list_58))
	(head_117 x_3464 (cons_58 x_3464 x_3465))))
(assert (forall ((x_3464 Int) (x_3465 list_58))
	(tail_117 x_3465 (cons_58 x_3464 x_3465))))
(assert (isnil_58 nil_58))
(assert (forall ((x_3467 Int) (x_3468 list_58))
	(iscons_58 (cons_58 x_3467 x_3468))))
(assert (forall ((x_3469 Int) (x_3470 list_58))
	(diseqlist_58 nil_58 (cons_58 x_3469 x_3470))))
(assert (forall ((x_3471 Int) (x_3472 list_58))
	(diseqlist_58 (cons_58 x_3471 x_3472) nil_58)))
(assert (forall ((x_3473 Int) (x_3474 list_58) (x_3475 Int) (x_3476 list_58))
	(=> (diseqInt x_3473 x_3475) (diseqlist_58 (cons_58 x_3473 x_3474) (cons_58 x_3475 x_3476)))))
(assert (forall ((x_3473 Int) (x_3474 list_58) (x_3475 Int) (x_3476 list_58))
	(=> (diseqlist_58 x_3474 x_3476) (diseqlist_58 (cons_58 x_3473 x_3474) (cons_58 x_3475 x_3476)))))
(declare-fun butlast_3 (list_58 list_58) Bool)
(assert (forall ((x_3454 list_58) (x_3448 Int) (x_3449 list_58) (y_282 Int))
	(=> (butlast_3 x_3454 (cons_58 x_3448 x_3449)) (butlast_3 (cons_58 y_282 x_3454) (cons_58 y_282 (cons_58 x_3448 x_3449))))))
(assert (forall ((y_282 Int))
	(butlast_3 nil_58 (cons_58 y_282 nil_58))))
(assert (butlast_3 nil_58 nil_58))
(declare-fun x_3450 (list_58 list_58 list_58) Bool)
(assert (forall ((x_3458 list_58) (z_354 Int) (xs_108 list_58) (y_283 list_58))
	(=> (x_3450 x_3458 xs_108 y_283) (x_3450 (cons_58 z_354 x_3458) (cons_58 z_354 xs_108) y_283))))
(assert (forall ((x_3459 list_58))
	(x_3450 x_3459 nil_58 x_3459)))
(assert (forall ((x_3460 list_58) (x_3461 list_58) (xs_109 list_58) (x_3452 Int))
	(=> (and true (diseqlist_58 x_3461 xs_109) (x_3450 x_3460 xs_109 (cons_58 x_3452 nil_58)) (butlast_3 x_3461 x_3460)) false)))
(check-sat)
